unsat
(error "line 8979 column 17: model is not available")
(error "line 8980 column 17: model is not available")
(error "line 8981 column 18: model is not available")
(error "line 8982 column 19: model is not available")
(error "line 8983 column 19: model is not available")
(error "line 8984 column 19: model is not available")
(error "line 8985 column 19: model is not available")
(error "line 8986 column 19: model is not available")
(error "line 8987 column 19: model is not available")
(error "line 8988 column 19: model is not available")
(error "line 8989 column 19: model is not available")
(error "line 8990 column 19: model is not available")
(error "line 8991 column 19: model is not available")
(error "line 8992 column 18: model is not available")
(error "line 8993 column 19: model is not available")
(error "line 8994 column 19: model is not available")
(error "line 8995 column 19: model is not available")
(error "line 8996 column 19: model is not available")
(error "line 8997 column 19: model is not available")
(error "line 8998 column 19: model is not available")
(error "line 8999 column 19: model is not available")
(error "line 9000 column 19: model is not available")
(error "line 9001 column 19: model is not available")
(error "line 9002 column 19: model is not available")
(error "line 9003 column 18: model is not available")
(error "line 9004 column 19: model is not available")
(error "line 9005 column 19: model is not available")
(error "line 9006 column 19: model is not available")
(error "line 9007 column 19: model is not available")
(error "line 9008 column 19: model is not available")
(error "line 9009 column 19: model is not available")
(error "line 9010 column 19: model is not available")
(error "line 9011 column 19: model is not available")
(error "line 9012 column 19: model is not available")
(error "line 9013 column 19: model is not available")
(error "line 9014 column 18: model is not available")
(error "line 9015 column 19: model is not available")
(error "line 9016 column 19: model is not available")
(error "line 9017 column 19: model is not available")
(error "line 9018 column 19: model is not available")
(error "line 9019 column 19: model is not available")
(error "line 9020 column 19: model is not available")
(error "line 9021 column 19: model is not available")
(error "line 9022 column 19: model is not available")
(error "line 9023 column 19: model is not available")
(error "line 9024 column 19: model is not available")
(error "line 9025 column 18: model is not available")
(error "line 9026 column 19: model is not available")
(error "line 9027 column 19: model is not available")
(error "line 9028 column 19: model is not available")
(error "line 9029 column 19: model is not available")
(error "line 9030 column 19: model is not available")
(error "line 9031 column 19: model is not available")
(error "line 9032 column 19: model is not available")
(error "line 9033 column 19: model is not available")
(error "line 9034 column 19: model is not available")
(error "line 9035 column 19: model is not available")
(error "line 9036 column 18: model is not available")
(error "line 9037 column 19: model is not available")
(error "line 9038 column 19: model is not available")
(error "line 9039 column 19: model is not available")
(error "line 9040 column 19: model is not available")
(error "line 9041 column 19: model is not available")
(error "line 9042 column 19: model is not available")
(error "line 9043 column 19: model is not available")
(error "line 9044 column 19: model is not available")
(error "line 9045 column 19: model is not available")
(error "line 9046 column 19: model is not available")
(error "line 9047 column 18: model is not available")
(error "line 9048 column 19: model is not available")
(error "line 9049 column 19: model is not available")
(error "line 9050 column 19: model is not available")
(error "line 9051 column 19: model is not available")
(error "line 9052 column 18: model is not available")
(error "line 9053 column 18: model is not available")
(error "line 9054 column 18: model is not available")
(error "line 9055 column 17: model is not available")
(error "line 9056 column 18: model is not available")
(error "line 9057 column 18: model is not available")
(error "line 9058 column 18: model is not available")
(error "line 9059 column 18: model is not available")
(error "line 9060 column 18: model is not available")
(error "line 9061 column 18: model is not available")
(error "line 9062 column 18: model is not available")
(error "line 9063 column 18: model is not available")
(error "line 9064 column 18: model is not available")
(error "line 9065 column 18: model is not available")
(error "line 9066 column 17: model is not available")
(error "line 9067 column 18: model is not available")
(error "line 9068 column 18: model is not available")
(error "line 9069 column 18: model is not available")
(error "line 9070 column 18: model is not available")
(error "line 9071 column 18: model is not available")
(error "line 9072 column 18: model is not available")
(error "line 9073 column 18: model is not available")
(error "line 9074 column 18: model is not available")
(error "line 9075 column 18: model is not available")
(error "line 9076 column 18: model is not available")
(error "line 9077 column 17: model is not available")
(error "line 9078 column 18: model is not available")
(error "line 9079 column 18: model is not available")
(error "line 9080 column 18: model is not available")
(error "line 9081 column 18: model is not available")
(error "line 9082 column 18: model is not available")
(error "line 9083 column 18: model is not available")
(error "line 9084 column 18: model is not available")
(error "line 9085 column 18: model is not available")
(error "line 9086 column 18: model is not available")
(error "line 9087 column 18: model is not available")
(error "line 9088 column 17: model is not available")
(error "line 9089 column 18: model is not available")
(error "line 9090 column 18: model is not available")
(error "line 9091 column 18: model is not available")
(error "line 9092 column 18: model is not available")
(error "line 9093 column 18: model is not available")
(error "line 9094 column 18: model is not available")
(error "line 9095 column 18: model is not available")
(error "line 9096 column 18: model is not available")
(error "line 9097 column 18: model is not available")
(error "line 9098 column 18: model is not available")
(error "line 9099 column 17: model is not available")
(error "line 9100 column 18: model is not available")
(error "line 9101 column 18: model is not available")
(error "line 9102 column 18: model is not available")
(error "line 9103 column 18: model is not available")
(error "line 9104 column 18: model is not available")
(error "line 9105 column 18: model is not available")
(error "line 9106 column 18: model is not available")
(error "line 9107 column 18: model is not available")
(error "line 9108 column 18: model is not available")
(error "line 9109 column 18: model is not available")
(error "line 9110 column 17: model is not available")
(error "line 9111 column 18: model is not available")
(error "line 9112 column 18: model is not available")
(error "line 9113 column 18: model is not available")
(error "line 9114 column 18: model is not available")
(error "line 9115 column 18: model is not available")
(error "line 9116 column 18: model is not available")
(error "line 9117 column 18: model is not available")
(error "line 9118 column 18: model is not available")
(error "line 9119 column 18: model is not available")
(error "line 9120 column 18: model is not available")
(error "line 9121 column 17: model is not available")
(error "line 9122 column 18: model is not available")
(error "line 9123 column 18: model is not available")
(error "line 9124 column 18: model is not available")
(error "line 9125 column 18: model is not available")
(error "line 9126 column 18: model is not available")
(error "line 9127 column 18: model is not available")
(error "line 9128 column 18: model is not available")
(error "line 9129 column 18: model is not available")
(error "line 9130 column 18: model is not available")
(error "line 9131 column 18: model is not available")
(error "line 9132 column 17: model is not available")
(error "line 9133 column 18: model is not available")
(error "line 9134 column 18: model is not available")
(error "line 9135 column 18: model is not available")
(error "line 9136 column 18: model is not available")
(error "line 9137 column 18: model is not available")
(error "line 9138 column 18: model is not available")
(error "line 9139 column 18: model is not available")
(error "line 9140 column 18: model is not available")
(error "line 9141 column 18: model is not available")
(error "line 9142 column 18: model is not available")
(error "line 9143 column 38: model is not available")
(error "line 9144 column 45: model is not available")
(error "line 9145 column 38: model is not available")
(error "line 9146 column 45: model is not available")
(error "line 9147 column 46: model is not available")
(error "line 9148 column 53: model is not available")
(error "line 9149 column 40: model is not available")
(error "line 9150 column 47: model is not available")
(error "line 9151 column 38: model is not available")
(error "line 9152 column 45: model is not available")
(error "line 9153 column 38: model is not available")
(error "line 9154 column 45: model is not available")
(error "line 9155 column 41: model is not available")
(error "line 9156 column 48: model is not available")
(error "line 9157 column 41: model is not available")
(error "line 9158 column 48: model is not available")
(error "line 9159 column 41: model is not available")
(error "line 9160 column 48: model is not available")
(error "line 9161 column 41: model is not available")
(error "line 9162 column 41: model is not available")
(error "line 9163 column 48: model is not available")
(error "line 9164 column 41: model is not available")
(error "line 9165 column 48: model is not available")
(error "line 9166 column 41: model is not available")
(error "line 9167 column 41: model is not available")
(error "line 9168 column 48: model is not available")
(error "line 9169 column 37: model is not available")
(error "line 9170 column 44: model is not available")
(error "line 9171 column 42: model is not available")
(error "line 9172 column 42: model is not available")
(error "line 9173 column 42: model is not available")
(error "line 9174 column 42: model is not available")
(error "line 9175 column 38: model is not available")
(error "line 9176 column 38: model is not available")
(error "line 9177 column 38: model is not available")
(error "line 9178 column 38: model is not available")
(error "line 9179 column 38: model is not available")
(error "line 9180 column 38: model is not available")
(error "line 9181 column 38: model is not available")
(error "line 9182 column 41: model is not available")
(error "line 9183 column 48: model is not available")
(error "line 9184 column 18: model is not available")
(error "line 9185 column 25: model is not available")
(error "line 9186 column 19: model is not available")
(error "line 9187 column 26: model is not available")
(error "line 9188 column 19: model is not available")
(error "line 9189 column 26: model is not available")
(error "line 9190 column 18: model is not available")
(error "line 9191 column 25: model is not available")
(error "line 9192 column 18: model is not available")
(error "line 9193 column 25: model is not available")
(error "line 9194 column 18: model is not available")
(error "line 9195 column 25: model is not available")
(error "line 9196 column 18: model is not available")
(error "line 9197 column 25: model is not available")
(error "line 9198 column 18: model is not available")
(error "line 9199 column 25: model is not available")
(error "line 9200 column 18: model is not available")
(error "line 9201 column 25: model is not available")
(error "line 9202 column 18: model is not available")
(error "line 9203 column 25: model is not available")
(error "line 9204 column 18: model is not available")
(error "line 9205 column 25: model is not available")
(error "line 9206 column 18: model is not available")
(error "line 9207 column 25: model is not available")
(error "line 9208 column 19: model is not available")
(error "line 9209 column 26: model is not available")
(error "line 9210 column 19: model is not available")
(error "line 9211 column 26: model is not available")
(error "line 9212 column 18: model is not available")
(error "line 9213 column 25: model is not available")
(error "line 9214 column 18: model is not available")
(error "line 9215 column 25: model is not available")
(error "line 9216 column 18: model is not available")
(error "line 9217 column 25: model is not available")
(error "line 9218 column 18: model is not available")
(error "line 9219 column 25: model is not available")
(error "line 9220 column 18: model is not available")
(error "line 9221 column 25: model is not available")
(error "line 9222 column 18: model is not available")
(error "line 9223 column 25: model is not available")
(error "line 9224 column 18: model is not available")
(error "line 9225 column 25: model is not available")
(error "line 9226 column 18: model is not available")
(error "line 9227 column 25: model is not available")
(error "line 9228 column 18: model is not available")
(error "line 9229 column 25: model is not available")
(error "line 9230 column 18: model is not available")
(error "line 9231 column 25: model is not available")
(error "line 9232 column 18: model is not available")
(error "line 9233 column 25: model is not available")
(error "line 9234 column 18: model is not available")
(error "line 9235 column 25: model is not available")
(error "line 9236 column 18: model is not available")
(error "line 9237 column 25: model is not available")
(error "line 9238 column 18: model is not available")
(error "line 9239 column 25: model is not available")
(error "line 9240 column 18: model is not available")
(error "line 9241 column 25: model is not available")
(error "line 9242 column 18: model is not available")
(error "line 9243 column 25: model is not available")
(error "line 9244 column 18: model is not available")
(error "line 9245 column 25: model is not available")
(error "line 9246 column 38: model is not available")
(error "line 9247 column 38: model is not available")
(error "line 9248 column 36: model is not available")
(error "line 9249 column 36: model is not available")
(error "line 9250 column 36: model is not available")
(error "line 9251 column 29: model is not available")
(error "line 9252 column 31: model is not available")
(error "line 9253 column 38: model is not available")
(error "line 9254 column 31: model is not available")
(error "line 9255 column 38: model is not available")
(error "line 9256 column 31: model is not available")
(error "line 9257 column 38: model is not available")
(error "line 9258 column 31: model is not available")
(error "line 9259 column 38: model is not available")
(error "line 9260 column 52: model is not available")
(error "line 9261 column 51: model is not available")
(error "line 9262 column 52: model is not available")
(error "line 9263 column 52: model is not available")
(error "line 9264 column 51: model is not available")
(error "line 9265 column 52: model is not available")
(error "line 9266 column 52: model is not available")
(error "line 9267 column 52: model is not available")
(error "line 9268 column 51: model is not available")
(error "line 9269 column 52: model is not available")
(error "line 9270 column 52: model is not available")
(error "line 9271 column 52: model is not available")
(error "line 9272 column 51: model is not available")
(error "line 9273 column 52: model is not available")
(error "line 9274 column 54: model is not available")
(error "line 9275 column 53: model is not available")
(error "line 9276 column 53: model is not available")
(error "line 9277 column 53: model is not available")
(error "line 9278 column 54: model is not available")
(error "line 9279 column 54: model is not available")
(error "line 9280 column 53: model is not available")
(error "line 9281 column 54: model is not available")
(error "line 9282 column 54: model is not available")
(error "line 9283 column 54: model is not available")
(error "line 9284 column 53: model is not available")
(error "line 9285 column 54: model is not available")
(error "line 9286 column 50: model is not available")
(error "line 9287 column 51: model is not available")
(error "line 9288 column 50: model is not available")
(error "line 9289 column 51: model is not available")
(error "line 9290 column 50: model is not available")
(error "line 9291 column 52: model is not available")
(error "line 9292 column 52: model is not available")
(error "line 9293 column 51: model is not available")
(error "line 9294 column 52: model is not available")
(error "line 9295 column 51: model is not available")
(error "line 9296 column 52: model is not available")
(error "line 9297 column 51: model is not available")
(error "line 9298 column 52: model is not available")
(error "line 9299 column 52: model is not available")
(error "line 9300 column 51: model is not available")
(error "line 9301 column 52: model is not available")
(error "line 9302 column 53: model is not available")
(error "line 9303 column 53: model is not available")
(error "line 9304 column 52: model is not available")
(error "line 9305 column 53: model is not available")
(error "line 9306 column 53: model is not available")
(error "line 9307 column 52: model is not available")
(error "line 9308 column 52: model is not available")
(error "line 9309 column 53: model is not available")
(error "line 9310 column 53: model is not available")
(error "line 9311 column 52: model is not available")
(error "line 9312 column 53: model is not available")
(error "line 9313 column 53: model is not available")
(error "line 9314 column 53: model is not available")
(error "line 9315 column 52: model is not available")
(error "line 9316 column 53: model is not available")
(error "line 9317 column 51: model is not available")
(error "line 9318 column 52: model is not available")
(error "line 9319 column 51: model is not available")
(error "line 9320 column 52: model is not available")
(error "line 9321 column 51: model is not available")
(error "line 9322 column 52: model is not available")
(error "line 9323 column 52: model is not available")
(error "line 9324 column 51: model is not available")
(error "line 9325 column 52: model is not available")
(error "line 9326 column 51: model is not available")
(error "line 9327 column 53: model is not available")
(error "line 9328 column 53: model is not available")
(error "line 9329 column 52: model is not available")
(error "line 9330 column 52: model is not available")
(error "line 9331 column 52: model is not available")
(error "line 9332 column 53: model is not available")
(error "line 9333 column 53: model is not available")
(error "line 9334 column 52: model is not available")
(error "line 9335 column 53: model is not available")
(error "line 9336 column 54: model is not available")
(error "line 9337 column 54: model is not available")
(error "line 9338 column 53: model is not available")
(error "line 9339 column 53: model is not available")
(error "line 9340 column 53: model is not available")
(error "line 9341 column 53: model is not available")
(error "line 9342 column 54: model is not available")
(error "line 9343 column 54: model is not available")
(error "line 9344 column 53: model is not available")
(error "line 9345 column 54: model is not available")
(error "line 9346 column 54: model is not available")
(error "line 9347 column 54: model is not available")
(error "line 9348 column 53: model is not available")
(error "line 9349 column 53: model is not available")
(error "line 9350 column 53: model is not available")
(error "line 9351 column 54: model is not available")
(error "line 9352 column 53: model is not available")
(error "line 9353 column 54: model is not available")
(error "line 9354 column 54: model is not available")
(error "line 9355 column 53: model is not available")
(error "line 9356 column 54: model is not available")
(error "line 9357 column 52: model is not available")
(error "line 9358 column 52: model is not available")
(error "line 9359 column 53: model is not available")
(error "line 9360 column 52: model is not available")
(error "line 9361 column 53: model is not available")
(error "line 9362 column 52: model is not available")
(error "line 9363 column 53: model is not available")
(error "line 9364 column 52: model is not available")
(error "line 9365 column 53: model is not available")
(error "line 9366 column 52: model is not available")
(error "line 9367 column 53: model is not available")
(error "line 9368 column 52: model is not available")
(error "line 9369 column 53: model is not available")
(error "line 9370 column 53: model is not available")
(error "line 9371 column 52: model is not available")
(error "line 9372 column 53: model is not available")
(error "line 9373 column 52: model is not available")
(error "line 9374 column 54: model is not available")
(error "line 9375 column 54: model is not available")
(error "line 9376 column 53: model is not available")
(error "line 9377 column 53: model is not available")
(error "line 9378 column 53: model is not available")
(error "line 9379 column 54: model is not available")
(error "line 9380 column 54: model is not available")
(error "line 9381 column 53: model is not available")
(error "line 9382 column 54: model is not available")
(error "line 9383 column 54: model is not available")
(error "line 9384 column 53: model is not available")
(error "line 9385 column 54: model is not available")
(error "line 9386 column 51: model is not available")
(error "line 9387 column 52: model is not available")
(error "line 9388 column 51: model is not available")
(error "line 9389 column 52: model is not available")
(error "line 9390 column 52: model is not available")
(error "line 9391 column 51: model is not available")
(error "line 9392 column 52: model is not available")
(error "line 9393 column 52: model is not available")
(error "line 9394 column 51: model is not available")
(error "line 9395 column 52: model is not available")
(error "line 9396 column 51: model is not available")
(error "line 9397 column 52: model is not available")
(error "line 9398 column 51: model is not available")
(error "line 9399 column 53: model is not available")
(error "line 9400 column 53: model is not available")
(error "line 9401 column 52: model is not available")
(error "line 9402 column 52: model is not available")
(error "line 9403 column 52: model is not available")
(error "line 9404 column 53: model is not available")
(error "line 9405 column 53: model is not available")
(error "line 9406 column 52: model is not available")
(error "line 9407 column 53: model is not available")
(error "line 9408 column 54: model is not available")
(error "line 9409 column 54: model is not available")
(error "line 9410 column 53: model is not available")
(error "line 9411 column 53: model is not available")
(error "line 9412 column 53: model is not available")
(error "line 9413 column 54: model is not available")
(error "line 9414 column 54: model is not available")
(error "line 9415 column 53: model is not available")
(error "line 9416 column 54: model is not available")
(error "line 9417 column 53: model is not available")
(error "line 9418 column 54: model is not available")
(error "line 9419 column 54: model is not available")
(error "line 9420 column 53: model is not available")
(error "line 9421 column 53: model is not available")
(error "line 9422 column 53: model is not available")
(error "line 9423 column 54: model is not available")
(error "line 9424 column 54: model is not available")
(error "line 9425 column 53: model is not available")
(error "line 9426 column 54: model is not available")
(error "line 9427 column 54: model is not available")
(error "line 9428 column 53: model is not available")
(error "line 9429 column 52: model is not available")
(error "line 9430 column 53: model is not available")
(error "line 9431 column 52: model is not available")
(error "line 9432 column 52: model is not available")
(error "line 9433 column 53: model is not available")
(error "line 9434 column 53: model is not available")
(error "line 9435 column 52: model is not available")
(error "line 9436 column 52: model is not available")
(error "line 9437 column 53: model is not available")
(error "line 9438 column 53: model is not available")
(error "line 9439 column 52: model is not available")
(error "line 9440 column 52: model is not available")
(error "line 9441 column 53: model is not available")
(error "line 9442 column 53: model is not available")
(error "line 9443 column 52: model is not available")
(error "line 9444 column 53: model is not available")
(error "line 9445 column 52: model is not available")
(error "line 9446 column 54: model is not available")
(error "line 9447 column 54: model is not available")
(error "line 9448 column 53: model is not available")
(error "line 9449 column 53: model is not available")
(error "line 9450 column 53: model is not available")
(error "line 9451 column 54: model is not available")
(error "line 9452 column 54: model is not available")
(error "line 9453 column 53: model is not available")
(error "line 9454 column 54: model is not available")
(error "line 9455 column 54: model is not available")
(error "line 9456 column 54: model is not available")
(error "line 9457 column 53: model is not available")
(error "line 9458 column 51: model is not available")
(error "line 9459 column 52: model is not available")
(error "line 9460 column 51: model is not available")
(error "line 9461 column 52: model is not available")
(error "line 9462 column 52: model is not available")
(error "line 9463 column 51: model is not available")
(error "line 9464 column 52: model is not available")
(error "line 9465 column 52: model is not available")
(error "line 9466 column 51: model is not available")
(error "line 9467 column 52: model is not available")
(error "line 9468 column 52: model is not available")
(error "line 9469 column 51: model is not available")
(error "line 9470 column 51: model is not available")
(error "line 9471 column 58: model is not available")
(error "line 9472 column 57: model is not available")
(error "line 9473 column 58: model is not available")
(error "line 9474 column 57: model is not available")
(error "line 9475 column 58: model is not available")
(error "line 9476 column 57: model is not available")
(error "line 9477 column 58: model is not available")
(error "line 9478 column 57: model is not available")
(error "line 9479 column 58: model is not available")
(error "line 9480 column 57: model is not available")
(error "line 9481 column 57: model is not available")
(error "line 9482 column 57: model is not available")
(error "line 9483 column 58: model is not available")
(error "line 9484 column 58: model is not available")
(error "line 9485 column 57: model is not available")
(error "line 9486 column 58: model is not available")
(error "line 9487 column 58: model is not available")
(error "line 9488 column 58: model is not available")
(error "line 9489 column 57: model is not available")
(error "line 9490 column 58: model is not available")
(error "line 9491 column 58: model is not available")
(error "line 9492 column 57: model is not available")
(error "line 9493 column 58: model is not available")
(error "line 9494 column 57: model is not available")
(error "line 9495 column 57: model is not available")
(error "line 9496 column 56: model is not available")
(error "line 9497 column 57: model is not available")
(error "line 9498 column 56: model is not available")
(error "line 9499 column 58: model is not available")
(error "line 9500 column 58: model is not available")
(error "line 9501 column 57: model is not available")
(error "line 9502 column 58: model is not available")
(error "line 9503 column 58: model is not available")
(error "line 9504 column 58: model is not available")
(error "line 9505 column 57: model is not available")
(error "line 9506 column 58: model is not available")
(error "line 9507 column 57: model is not available")
(error "line 9508 column 57: model is not available")
(error "line 9509 column 56: model is not available")
(error "line 9510 column 57: model is not available")
(error "line 9511 column 57: model is not available")
(error "line 9512 column 57: model is not available")
(error "line 9513 column 56: model is not available")
(error "line 9514 column 57: model is not available")
(error "line 9515 column 57: model is not available")
(error "line 9516 column 57: model is not available")
(error "line 9517 column 56: model is not available")
(error "line 9518 column 57: model is not available")
(error "line 9519 column 57: model is not available")
(error "line 9520 column 57: model is not available")
(error "line 9521 column 56: model is not available")
(error "line 9522 column 57: model is not available")
(error "line 9523 column 57: model is not available")
(error "line 9524 column 57: model is not available")
(error "line 9525 column 56: model is not available")
(error "line 9526 column 57: model is not available")
(error "line 9527 column 57: model is not available")
(error "line 9528 column 57: model is not available")
(error "line 9529 column 56: model is not available")
(error "line 9530 column 57: model is not available")
(error "line 9531 column 58: model is not available")
(error "line 9532 column 58: model is not available")
(error "line 9533 column 57: model is not available")
(error "line 9534 column 58: model is not available")
(error "line 9535 column 58: model is not available")
(error "line 9536 column 58: model is not available")
(error "line 9537 column 57: model is not available")
(error "line 9538 column 58: model is not available")
(error "line 9539 column 58: model is not available")
(error "line 9540 column 57: model is not available")
(error "line 9541 column 58: model is not available")
(error "line 9542 column 57: model is not available")
(error "line 9543 column 58: model is not available")
(error "line 9544 column 57: model is not available")
(error "line 9545 column 57: model is not available")
(error "line 9546 column 57: model is not available")
(error "line 9547 column 56: model is not available")
(error "line 9548 column 57: model is not available")
(error "line 9549 column 58: model is not available")
(error "line 9550 column 57: model is not available")
(error "line 9551 column 58: model is not available")
(error "line 9552 column 58: model is not available")
(error "line 9553 column 57: model is not available")
(error "line 9554 column 58: model is not available")
(error "line 9555 column 57: model is not available")
(error "line 9556 column 56: model is not available")
(error "line 9557 column 57: model is not available")
(error "line 9558 column 56: model is not available")
(error "line 9559 column 57: model is not available")
(error "line 9560 column 56: model is not available")
(error "line 9561 column 57: model is not available")
(error "line 9562 column 56: model is not available")
(error "line 9563 column 22: model is not available")
(error "line 9564 column 29: model is not available")
(error "line 9565 column 23: model is not available")
(error "line 9566 column 30: model is not available")
(error "line 9567 column 23: model is not available")
(error "line 9568 column 30: model is not available")
(error "line 9569 column 23: model is not available")
(error "line 9570 column 23: model is not available")
(error "line 9571 column 30: model is not available")
(error "line 9572 column 23: model is not available")
(error "line 9573 column 30: model is not available")
(error "line 9574 column 23: model is not available")
(error "line 9575 column 23: model is not available")
(error "line 9576 column 30: model is not available")
(error "line 9577 column 23: model is not available")
(error "line 9578 column 30: model is not available")
(error "line 9579 column 23: model is not available")
(error "line 9580 column 23: model is not available")
(error "line 9581 column 30: model is not available")
(error "line 9582 column 22: model is not available")
(error "line 9583 column 29: model is not available")
(error "line 9584 column 23: model is not available")
(error "line 9585 column 30: model is not available")
(error "line 9586 column 23: model is not available")
(error "line 9587 column 23: model is not available")
(error "line 9588 column 30: model is not available")
(error "line 9589 column 23: model is not available")
(error "line 9590 column 30: model is not available")
(error "line 9591 column 23: model is not available")
(error "line 9592 column 23: model is not available")
(error "line 9593 column 30: model is not available")
(error "line 9594 column 23: model is not available")
(error "line 9595 column 30: model is not available")
(error "line 9596 column 23: model is not available")
(error "line 9597 column 23: model is not available")
(error "line 9598 column 30: model is not available")
(error "line 9599 column 23: model is not available")
(error "line 9600 column 30: model is not available")
(error "line 9601 column 22: model is not available")
(error "line 9602 column 23: model is not available")
(error "line 9603 column 23: model is not available")
(error "line 9604 column 30: model is not available")
(error "line 9605 column 23: model is not available")
(error "line 9606 column 30: model is not available")
(error "line 9607 column 23: model is not available")
(error "line 9608 column 23: model is not available")
(error "line 9609 column 30: model is not available")
(error "line 9610 column 23: model is not available")
(error "line 9611 column 30: model is not available")
(error "line 9612 column 23: model is not available")
(error "line 9613 column 23: model is not available")
(error "line 9614 column 30: model is not available")
(error "line 9615 column 22: model is not available")
(error "line 9616 column 29: model is not available")
(error "line 9617 column 22: model is not available")
(error "line 9618 column 29: model is not available")
(error "line 9619 column 22: model is not available")
(error "line 9620 column 22: model is not available")
(error "line 9621 column 29: model is not available")
(error "line 9622 column 22: model is not available")
(error "line 9623 column 29: model is not available")
(error "line 9624 column 22: model is not available")
(error "line 9625 column 46: model is not available")
(error "line 9626 column 46: model is not available")
(error "line 9627 column 46: model is not available")
(error "line 9628 column 46: model is not available")
(error "line 9629 column 46: model is not available")
(error "line 9630 column 46: model is not available")
(error "line 9631 column 54: model is not available")
(error "line 9632 column 54: model is not available")
(error "line 9633 column 54: model is not available")
(error "line 9634 column 54: model is not available")
(error "line 9635 column 54: model is not available")
(error "line 9636 column 54: model is not available")
(error "line 9637 column 54: model is not available")
(error "line 9638 column 54: model is not available")
(error "line 9639 column 54: model is not available")
(error "line 9640 column 40: model is not available")
(error "line 9641 column 40: model is not available")
(error "line 9642 column 40: model is not available")
(error "line 9643 column 40: model is not available")
(error "line 9644 column 40: model is not available")
(error "line 9645 column 40: model is not available")
(error "line 9646 column 41: model is not available")
(error "line 9647 column 41: model is not available")
(error "line 9648 column 41: model is not available")
(error "line 9649 column 41: model is not available")
(error "line 9650 column 41: model is not available")
(error "line 9651 column 41: model is not available")
(error "line 9652 column 50: model is not available")
(error "line 9653 column 50: model is not available")
(error "line 9654 column 50: model is not available")
(error "line 9655 column 50: model is not available")
(error "line 9656 column 50: model is not available")
(error "line 9657 column 50: model is not available")
(error "line 9658 column 43: model is not available")
(error "line 9659 column 43: model is not available")
(error "line 9660 column 43: model is not available")
(error "line 9661 column 43: model is not available")
(error "line 9662 column 43: model is not available")
(error "line 9663 column 43: model is not available")
(error "line 9664 column 30: model is not available")
(error "line 9665 column 30: model is not available")
(error "line 9666 column 30: model is not available")
(error "line 9667 column 21: model is not available")
(error "line 9668 column 28: model is not available")
(error "line 9669 column 21: model is not available")
(error "line 9670 column 28: model is not available")
(error "line 9671 column 21: model is not available")
(error "line 9672 column 28: model is not available")
(error "line 9673 column 21: model is not available")
(error "line 9674 column 28: model is not available")
(error "line 9675 column 21: model is not available")
(error "line 9676 column 28: model is not available")
(error "line 9677 column 21: model is not available")
(error "line 9678 column 28: model is not available")
(error "line 9679 column 21: model is not available")
(error "line 9680 column 28: model is not available")
(error "line 9681 column 21: model is not available")
(error "line 9682 column 28: model is not available")
(error "line 9683 column 21: model is not available")
(error "line 9684 column 28: model is not available")
(error "line 9685 column 36: model is not available")
(error "line 9686 column 36: model is not available")
(error "line 9687 column 36: model is not available")
(error "line 9688 column 30: model is not available")
(error "line 9689 column 36: model is not available")
(error "line 9690 column 36: model is not available")
(error "line 9691 column 36: model is not available")
(error "line 9692 column 30: model is not available")
(error "line 9693 column 30: model is not available")
(error "line 9695 column 10: model is not available")
(:added-eqs                      5963
 :arith-bound-propagations-cheap 2783
 :arith-bound-propagations-lp    2250
 :arith-conflicts                20
 :arith-lower                    3113
 :arith-make-feasible            449
 :arith-max-columns              384
 :arith-max-rows                 317
 :arith-propagations             2783
 :arith-upper                    2133
 :binary-propagations            20205
 :bv-bit2core                    30455
 :bv-diseqs                      1
 :bv-dynamic-diseqs              130
 :bv->core-eq                    3
 :conflicts                      357
 :decisions                      641
 :del-clause                     4369
 :eliminated-applications        18
 :eliminated-vars                33
 :max-memory                     8.95
 :memory                         4.93
 :minimized-lits                 3750
 :mk-bool-var                    3914
 :mk-clause                      8489
 :num-allocs                     29738040
 :num-checks                     1
 :propagations                   50821
 :restarts                       3
 :rlimit-count                   698517
 :time                           0.15
 :total-time                     0.17)

real	0m0.179s
user	0m0.178s
sys	0m0.000s
State: RE Run_time: 0.1809377670288086